ELEMENTS

H N O AR HE

END

SPECIES

H H2 O OH H2O 
O2 N2 HO2 H2O2 

OHV AR HE
 
END

REACTIONS MOLES CAL/MOLE

!\REF: TSANG AND HAMPSON, J. PHYS. CHEM. REF. DATA, 15:1087 (1986) 
H2+M=2H+M    4.58E19 -1.4 1.044E5
    H2/2.5/
    H2O/12.0/
    HE/0.830/
2O+M=O2+M    6.16E15 -0.5 0.0E0
    H2/2.5/
    H2O/12.0/
    AR/0.83/
    HE/0.830/

!\REF: Natarajan, K., and Roth, P. (1987) Combust. Flame 70, 267 - Uncertainty +- 29%
H2+O=H+OH    5.08E4 2.7 6.260E3  

!\REF:LAM ET AL. SUBMITTED IJCK - Uncertainty +- 17%
H2+OH=H+H2O    4.38E13 0.0 6.99E3  

!\REF: HONG ET AL. PROC. OF THE COMB. INST. 33 (2011) 309-16 - Uncertainty +- 8.8%
O2+H=O+OH    1.04E14 0.0 1.5508E4  

!\REF: LI IJCK 36: 566-75, 2004 
H+OH+M=H2O+M    3.5E22 -2.0 0.0E0
    H2/0.73/
    H2O/3.65/
    AR/0.38/
    HE/0.0/  

H+OH+HE=H2O+HE   4.04E26 -3.234 0.0E0 !!Based on experimental data with bath gas = HE from NIST https://kinetics.nist.gov/kinetics/

!\REF: SUTHERLAND ET AL., 23RD SYMPOSIUM, P. 51 (1990) 
O+H2O=2OH    2.97E6 2.02 1.34E4

!\REF: TSANG AND HAMPSON, J. PHYS. CHEM. REF. DATA, 15:1087 (1986) 
O+H+M=OH+M    4.71E18 -1.0 0.0E0
    H2/2.5/
    H2O/12.0/
    AR/0.75/
    HE/0.75/

!\REF:KATHROTIA ET AL. COMB _ FLAME 2010 
H+O+M=OHV+M    1.5E13 0.0 5.975E3
    H2/1.0/
    H2O/6.5/
    O2/0.4/
    N2/0.4/
    AR/0.35/

!\REF:KATHROTIA ET AL. COMB _ FLAME 2010 
OHV+H2O=OH+H2O    5.93E12 0.5 -8.6E2
OHV+H2=OH+H2    2.95E12 0.5 -4.44E2
OHV+N2=OH+N2    1.08E11 0.5 -1.242E3
OHV+OH=2OH    6.01E12 0.5 -7.64E2
OHV+H=OH+H    1.31E12 0.5 -1.67E2
OHV+AR=OH+AR    1.69E12 0.0 4.135E3
OHV=OH    1.45E6 0.0 0.0E0
OHV+O2=OH+O2    2.1E12 0.5 -4.78E2

!\REF: TROE, COMBUST. FLAME, 158:594-601 (2011)
H2O2(+M)=2OH(+M)    2.0E12 0.9 4.8749E4
    H2O/5.1/
    AR/0.68/
    O2/0.79/
    H2O2/5.2/
    H2/3.7/
    HE/0.440/
    LOW/2.35E24 -2.293E0 4.8743E4/
    TROE/4.3E-1 1.0E-30 1.0E30/

!\REF:TSANG AND HAMPSON, J. PHYS. CHEM. REF. DATA, 15:1087 (1986) 
H2O2+H=H2O+OH    2.41E13 0.0 3.97E3

!\REF: ELLINGSON J. PHYS. CHEM. (2007) 111, (51), 13554-13566 
H2O2+H=H2+HO2    2.15E10 1.0 6.0E3

!\REF:TSANG AND HAMPSON, J. PHYS. CHEM. REF. DATA, 15:1087 (1986) 
H2O2+O=OH+HO2    9.55E6 2.0 3.97E3

!\REF: HONG ET AL. J. PHYS. CHEM. A 114 (2010) 5718-5727 
H2O2+OH=H2O+HO2    1.74E12 0.0 3.18E2
    DUP
H2O2+OH=H2O+HO2    7.59E13 0.0 7.269E3
    DUP

!\REF: MICHAEL SUTHERLAND 2000 
HO2+H=2OH    7.08E13 0.0 2.95E2

!\REF:MICHAEL SUTHERLAND 2000 
HO2+H=H2+O2    1.14E10 1.083 5.54E2

!\REF:BAULCH ET AL., J. PHYS. CHEM. REF DATA, 21:411 (1992)
HO2+O=OH+O2    3.25E13 0.0 0.0E0

!\REF: KEYSER, J. PHYS. CHEM. 92:1193 (1988) and HIPPLER ET AL. J. Chem. Phys. 103, 3510–3516 (1995)
!DLP adjusted to match experimental measurements of Keyser (low T) and Hippler (high T)
! HO2+OH=H2O+O2    59068.3359 -2.354484303 0.136645427
! JAN / -81.9478771 -117.4423425 -55.6034362 -13.26229425 -1.862299153 -0.162012483 -0.008642048 -0.000260552 -3.42655E-06/
! DUP

HO2+OH=H2O+O2    3.16483E+13 1.380154522 30605.01887
! DUP  

!\REF: M.P. BURKE, S.J. KLIPPENSTEIN, L.B. HARDING, PROC. COMBUST. INST. 34 (2013) 547-555 
2HO2=H2O2+O2    1.21E10 0.422 -1.481E3
    DUP
2HO2=H2O2+O2    1.69E16 -0.681 1.2932E4
    DUP

!\REF:https://doi.org/10.1016/j.combustflame.2020.03.018 - Princeton 2020
H+O2(+M)=HO2(+M)   1.025E12  0.604  -241.1 
    HE/0.35/ H2O/0.0/ AR/0.0/ H2/0.0/ HE/0.0/  
    LOW/2.720e+19 -1.290  0.0/  
    TROE/0.458 1.0E-10 1.0E30 1.0E30/

!Based on temperature-dependent collision efficiencies from https://www.osti.gov/servlets/purl/1923259
H+O2(+AR)=HO2(+AR)   5.64E11  0.691  -714.4
    LOW/1.19e+18 -1.04  0.11/  
    TROE/0.435 1.0E-10 1.0E30 1.0E30/
H+O2(+H2O)=HO2(+H2O)   2.15E12  0.292  -592.0  
    LOW/2.28e+19 -0.977  0.0/  
    TROE/1.0 1.0E-10 1.0E30 1.0E30/
H+O2(+H2)=HO2(+H2)   4.23E12  0.646  1395.7 
    LOW/8.28e+20 -1.72  -2.71/  
    TROE/0.353 1.0E-10 1.0E30 1.0E30/
H+O2(+HE)=HO2(+HE)   1.025E12  0.604  -241.1 
    LOW/2.720e+19 -1.290  0.0/ 
    TROE/0.458 1.0E-10 1.0E30 1.0E30/

END
