ELEMENTS

C H N O AR HE

END

SPECIES

H H2 O OH H2O 
O2 N2 HO2 H2O2 

C CO CO2 CH3O2H CH HCO HOCO O2CHO 
CHV CH2O OCHO HO2CHO CH2 
HCOH HOCHO HOCH2O2 CH2(S) CH3O 
CH3O2 OCH2O2H CH3 CH2OH CH2O2H 
HOCH2O2H CH4 CH3OH HOCH2O 

OHV AR HE
 
END

REACTIONS MOLES CAL/MOLE

!\REF: TSANG AND HAMPSON, J. PHYS. CHEM. REF. DATA, 15:1087 (1986) 
H2+M=2H+M    4.58E19 -1.4 1.044E5
    H2/2.5/
    H2O/12.0/
    CO/1.9/
    CO2/3.8/
    CH4/2.0/
    HE/0.830/
2O+M=O2+M    6.16E15 -0.5 0.0E0
    H2/2.5/
    H2O/12.0/
    AR/0.83/
    CO/1.9/
    CO2/3.8/
    CH4/2.0/
    HE/0.830/

!\REF: Natarajan, K., and Roth, P. (1987) Combust. Flame 70, 267 - Uncertainty +- 29%
H2+O=H+OH    5.08E4 2.7 6.260E3  

!\REF:LAM ET AL. SUBMITTED IJCK - Uncertainty +- 17%
H2+OH=H+H2O    4.38E13 0.0 6.99E3  

!\REF: HONG ET AL. PROC. OF THE COMB. INST. 33 (2011) 309-16 - Uncertainty +- 8.8%
O2+H=O+OH    1.04E14 0.0 1.5508E4  

!\REF: LI IJCK 36: 566-75, 2004 
H+OH+M=H2O+M    3.5E22 -2.0 0.0E0
    H2/0.73/
    H2O/3.65/
    CH4/2.0/
    AR/0.38/
    HE/0.0/  

H+OH+HE=H2O+HE   4.04E26 -3.234 0.0E0 !!Based on experimental data with bath gas = HE from NIST https://kinetics.nist.gov/kinetics/

!\REF: SUTHERLAND ET AL., 23RD SYMPOSIUM, P. 51 (1990) 
O+H2O=2OH    2.97E6 2.02 1.34E4

!\REF: TSANG AND HAMPSON, J. PHYS. CHEM. REF. DATA, 15:1087 (1986) 
O+H+M=OH+M    4.71E18 -1.0 0.0E0
    H2/2.5/
    H2O/12.0/
    AR/0.75/
    CO/1.5/
    CO2/2.0/
    CH4/2.0/
    HE/0.75/

!\REF:KATHROTIA ET AL. COMB _ FLAME 2010 
H+O+M=OHV+M    1.5E13 0.0 5.975E3
    H2/1.0/
    H2O/6.5/
    O2/0.4/
    N2/0.4/
    AR/0.35/

!\REF:KATHROTIA ET AL. COMB _ FLAME 2010 
OHV+H2O=OH+H2O    5.93E12 0.5 -8.6E2
OHV+H2=OH+H2    2.95E12 0.5 -4.44E2
OHV+N2=OH+N2    1.08E11 0.5 -1.242E3
OHV+OH=2OH    6.01E12 0.5 -7.64E2
OHV+H=OH+H    1.31E12 0.5 -1.67E2
OHV+AR=OH+AR    1.69E12 0.0 4.135E3
OHV=OH    1.45E6 0.0 0.0E0
OHV+O2=OH+O2    2.1E12 0.5 -4.78E2
OHV+CO2=OH+CO2    2.75E12 0.5 -9.68E2
OHV+CO=OH+CO    3.23E12 0.5 -7.87E2
OHV+CH4=OH+CH4    3.36E12 0.5 -6.35E2

!\REF: TROE, COMBUST. FLAME, 158:594-601 (2011)
H2O2(+M)=2OH(+M)    2.0E12 0.9 4.8749E4
    H2O/5.1/
    CO2/1.06/
    AR/0.68/
    O2/0.79/
    H2O2/5.2/
    H2/3.7/
    CO/2.8/
    HE/0.440/
    LOW/2.35E24 -2.293E0 4.8743E4/
    TROE/4.3E-1 1.0E-30 1.0E30/

!\REF:TSANG AND HAMPSON, J. PHYS. CHEM. REF. DATA, 15:1087 (1986) 
H2O2+H=H2O+OH    2.41E13 0.0 3.97E3

!\REF: ELLINGSON J. PHYS. CHEM. (2007) 111, (51), 13554-13566 
H2O2+H=H2+HO2    2.15E10 1.0 6.0E3

!\REF:TSANG AND HAMPSON, J. PHYS. CHEM. REF. DATA, 15:1087 (1986) 
H2O2+O=OH+HO2    9.55E6 2.0 3.97E3

!\REF: HONG ET AL. J. PHYS. CHEM. A 114 (2010) 5718-5727 
H2O2+OH=H2O+HO2    1.74E12 0.0 3.18E2
    DUP
H2O2+OH=H2O+HO2    7.59E13 0.0 7.269E3
    DUP

!\REF: MICHAEL SUTHERLAND 2000 
HO2+H=2OH    7.08E13 0.0 2.95E2

!\REF:MICHAEL SUTHERLAND 2000 
HO2+H=H2+O2    1.14E10 1.083 5.54E2

!\REF:BAULCH ET AL., J. PHYS. CHEM. REF DATA, 21:411 (1992)
HO2+O=OH+O2    3.25E13 0.0 0.0E0

!\REF: KEYSER, J. PHYS. CHEM. 92:1193 (1988) and HIPPLER ET AL. J. Chem. Phys. 103, 3510–3516 (1995)
!DLP adjusted to match experimental measurements of Keyser (low T) and Hippler (high T)
!HO2+OH=H2O+O2    59068.3359 -2.354484303 0.136645427
!JAN / -81.9478771 -117.4423425 -55.6034362 -13.26229425 -1.862299153 -0.162012483 -0.008642048 -0.000260552 -3.42655E-06/
!DUP
HO2+OH=H2O+O2    3.16483E+13 1.380154522 30605.01887
!DUP  

!\REF: M.P. BURKE, S.J. KLIPPENSTEIN, L.B. HARDING, PROC. COMBUST. INST. 34 (2013) 547-555 
2HO2=H2O2+O2    1.21E10 0.422 -1.481E3
    DUP
2HO2=H2O2+O2    1.69E16 -0.681 1.2932E4
    DUP

!\REF:https://doi.org/10.1016/j.combustflame.2020.03.018 - Princeton 2020
H+O2(+M)=HO2(+M)   1.025E12  0.604  -241.1 
    CO/1.9/ HE/0.35/ CH4/2.0/ CO2/0.0/ H2O/0.0/ AR/0.0/ H2/0.0/ HE/0.0/  
    LOW/2.720e+19 -1.290  0.0/  
    TROE/0.458 1.0E-10 1.0E30 1.0E30/

!Based on temperature-dependent collision efficiencies from https://www.osti.gov/servlets/purl/1923259
H+O2(+AR)=HO2(+AR)   5.64E11  0.691  -714.4
    LOW/1.19e+18 -1.04  0.11/  
    TROE/0.435 1.0E-10 1.0E30 1.0E30/
H+O2(+H2O)=HO2(+H2O)   2.15E12  0.292  -592.0  
    LOW/2.28e+19 -0.977  0.0/  
    TROE/1.0 1.0E-10 1.0E30 1.0E30/
H+O2(+H2)=HO2(+H2)   4.23E12  0.646  1395.7 
    LOW/8.28e+20 -1.72  -2.71/  
    TROE/0.353 1.0E-10 1.0E30 1.0E30/
H+O2(+CO2)=HO2(+CO2)   1.45E13  0.264  1607.2 
    LOW/1.88e+21 -1.70  -0.34/  
    TROE/1.28 70.8 1.58E3 2.1E4/
H+O2(+HE)=HO2(+HE)   1.025E12  0.604  -241.1 
    LOW/2.720e+19 -1.290  0.0/ 
    TROE/0.458 1.0E-10 1.0E30 1.0E30/

!\REF: MEULLER 99 
CO+O(+M)=CO2(+M)    1.36E10 0.0 2.384E3  
    H2/2.0/
    H2O/12.0/
    CO/1.75/
    CO2/3.6/
    AR/0.7/
    LOW/1.17E24 -2.79E0 4.191E3/

!Ref: J.P. SENOSIAIN, S.J. KLIPPENSTEIN, J.A. MILLER, PROC. COMBUST. INST. 30(2005) 945-953
OH+CO=H+CO2    2.3E7 1.35 9.74E2
    PLOG/1.315E-2 2.1E5 1.9E0 -1.064E3/
    PLOG/1.315E-1 2.5E5 1.88E0 -1.043E3/
    PLOG/1.315E0 8.7E5 1.73E0 -6.85E2/
    PLOG/1.315E1 5E7 1.35E0 9.74E2/  

!\REF: YOU ET AL. J. PHYS. CHEM. A 2007, 111, 4031-4042 
CO+HO2=CO2+OH    1.57E5 2.18 1.794E4

!\REF: 86TSA/ HAM 
CO+O2=CO2+O    1.12E12 0.0 4.77E4

!\REF: JOHN R. BARKER CALCULATION 7/ 3/ 2013 
HOCO=CO+OH    6.3E32 -5.96 3.247E4
    PLOG/1.0E-3 1.55E-8 2.93E0 8.768E3/
    PLOG/3.0E-3 1.77E3 3.4E-1 1.8076E4/
    PLOG/2.96E-2 2.02E13 -1.87E0 2.2755E4/
    PLOG/9.87E-2 1.68E18 -3.05E0 2.4323E4/
    PLOG/2.96E-1 2.5E24 -4.63E0 2.7067E4/
    PLOG/9.87E-1 4.54E26 -5.12E0 2.7572E4/
    PLOG/2.96E0 7.12E28 -5.6E0 2.8535E4/
    PLOG/9.87E0 5.48E29 -5.7E0 2.8899E4/
    PLOG/2.96E1 9.89E31 -6.19E0 3.0518E4/
    PLOG/9.87E1 5.74E33 -6.53E0 3.2068E4/
    PLOG/2.96E2 2.61E33 -6.29E0 3.2231E4/
    PLOG/9.87E2 6.3E32 -5.96E0 3.247E4/

!\REF: JOHN R. BARKER CALCULATION 7/ 3/ 2013 
HOCO=CO2+H    1.9E38 -8.047 3.424E4
    PLOG/1.0E-3 4.76E18 -3.817E0 1.7676E4/
    PLOG/3.0E-3 2.22E20 -4.149E0 1.9037E4/
    PLOG/9.9E-3 7.56E21 -4.434E0 2.0325E4/
    PLOG/2.96E-2 9.11E24 -5.189E0 2.2419E4/
    PLOG/9.87E-2 3.14E29 -6.376E0 2.5233E4/
    PLOG/2.96E-1 1.15E32 -7.037E0 2.6662E4/
    PLOG/9.87E-1 1.07E36 -8.107E0 2.9064E4/
    PLOG/2.96E0 2.44E36 -8.153E0 2.9336E4/
    PLOG/9.87E0 6.66E35 -7.919E0 2.9217E4/
    PLOG/2.96E1 1.72E38 -8.506E0 3.1273E4/
    PLOG/9.87E1 3.01E41 -9.29E0 3.3966E4/
    PLOG/2.96E2 6.77E36 -7.832E0 3.1613E4/
    PLOG/9.87E2 1.9E38 -8.047E0 3.424E4/

!Ref: http://combustion.berkeley.edu/gri-mech//new21/data/reactions/h+ch3+m_ch4+m.html and Chang, E.J., Davidson, D.F., DiRosa, M.D., Hanson, R.K., and Bowman, C.T. (1994) 25th Symposium (International) on Combustion and Stewart, P.H., Smith, G.P., and Golden, D.M. (1989) Int. J. Chem. Kinet. 21, 923.
CH3+H(+M)=CH4(+M)    0.63E16 -0.63 3.83E2  
    H2/2.0/
    H2O/6.0/
    AR/0.7/
    CO/1.5/
    CO2/2.0/
    CH4/2.0/
    LOW/3.52E33 -4.76E0 2.44E3/  
    TROE/7.83E-1 7.4E1 2.941E3 6.964E3/ !!7.83E-1 7.4E1 2.941E3 6.964E3/
 
!\REF: JASPER/ KLIPPENSTEIN PROC COMBUST INST 32 (2009) 279-286 
CH3+HO2=CH4+O2    1.16E5 2.23 -3.022E3

!\REF: BAULCH, D.L.; ET AL.,J. PHYS. CHEM. REF. DATA (2005) 
CH4+H=CH3+H2    6.14E5 2.5 9.587E3

!\REF: !REF:GRI 3.0 
CH4+O=CH3+OH    1.02E9 1.5 8.6E3

!\REF: CURRAN ESTIMATE, FIT TO NIST DATABASE 
CH4+OH=CH3+H2O    5.83E4 2.6 2.19E3

!AGUILERA-IPARRAGUIRRE JPCA 112 (2008) 7047-7054
CH4+HO2=CH3+H2O2    1.13E1 3.74 2.101E4

!\REF: NEW FIT FROM HJC 
CH4+CH3O2=CH3+CH3O2H    9.6E-1 3.77 1.781E4

!\REF: GRI 3.0 
CH4+CH2=2CH3    2.46E6 2.0 8.27E3
CH2(S)+N2=CH2+N2    1.5E13 0.0 6.0E2
CH2(S)+AR=CH2+AR    9.0E12 0.0 6.0E2
CH2(S)+H2O=CH2+H2O    3.0E13 0.0 0.0E0
CH2(S)+CO=CH2+CO    9.0E12 0.0 0.0E0
CH2(S)+CO2=CH2+CO2    7.0E12 0.0 0.0E0
CH2(S)+O2=>H+OH+CO    2.8E13 0.0 0.0E0
CH2(S)+O2=CO+H2O    1.2E13 0.0 0.0E0
CH2(S)+O=CO+H2    1.5E13 0.0 0.0E0
CH2(S)+O=HCO+H    1.5E13 0.0 0.0E0
CH2(S)+H2=CH3+H    7.0E13 0.0 0.0E0
CH2(S)+H=CH+H2    3.0E13 0.0 0.0E0
CH2(S)+OH=CH2O+H    3.0E13 0.0 0.0E0
CH2(S)+CO2=CH2O+CO    1.4E13 0.0 0.0E0

!\REF: LASKIN ET AL. IJCK 32 589-614 2000
CH2+H(+M)=CH3(+M)    2.5E16 -0.8 0.0E0
    H2/2.0/
    H2O/6.0/
    AR/0.7/
    CO/1.5/
    CO2/2.0/
    CH4/2.0/
    LOW/3.2E27 -3.14E0 1.23E3/
    TROE/6.8E-1 7.8E1 1.995E3 5.59E3/

!\REF: GIMENEZ-LOPEZ ET AL. INT. J. CHEM. KINET. 10.1002/KIN.21028 
CH2+O2=>CO2+2H    2.1E9 0.993 -2.69E2
CH2+O2=CH2O+O    1.3E6 2.42 1.604E3

!\REF: GRI 3.0 
CH2+O=>CO+2H    5.0E13 0.0 0.0E0

!\REF: GLARBORG, MILLER, AND KEE, WESTERN STATES SECTION, SAN ANTONIO (1985) 
CH2+H=CH+H2    3.0E13 0.0 0.0E0

!\REF: GRI 3.0 
CH2+OH=CH+H2O    1.13E7 2.0 3.0E3

!\REF:HWANG, GARDINER, FRENKLACH, HIDAKA, COMB. FL. 67, 65-75 (1987) 
CHV+AR=CH+AR    4.0E11 0.5 0.0E0
CHV+H2O=CH+H2O    5.3E13 0.0 0.0E0
CHV+CO=CH+CO    2.44E12 0.5 0.0E0
CHV+CO2=CH+CO2    2.41E-1 4.3 -1.694E3
CHV+O2=CH+O2    2.48E6 2.14 -1.72E3
CHV+H2=CH+H2    1.47E14 0.0 1.361E3
CHV+CH4=CH+CH4    1.73E13 0.0 1.67E2
CHV=CH    1.86E6 0.0 0.0E0
CHV+N2=CH+N2    3.03E2 3.4 -3.81E2
C+H+M=CHV+M    6.0E14 0.0 6.94E3

!\REF:KATHROTIA ET AL. COMB _ FLAME 2010                                  
CH+O2=CO+OHV    4.04E13 0.0 0.0E0

!\REF: GRI 3.0                                                              
CH+O2=HCO+O    3.3E13 0.0 0.0E0

!\REF: MESSING ET AL.,J. CHEM. PHYS. 74, 3874 (1981)                        
CH+O=CO+H    5.7E13 0.0 0.0E0

!\REF: GRI 3.0                                                              
CH+H=C+H2    1.1E14 0.0 0.0E0

!\REF: GLARBORG, MILLER, AND KEE, WESTERN STATES SECTION, SAN ANTONIO (1985) 
CH+OH=HCO+H    3.0E13 0.0 0.0E0

!\REF:BERGEAT ET AL., CHEM. PHYS. LETT. 480, 21 (2009)                     
CH+H2O=H+CH2O    1.77E16 -1.22 2.4E1

!\REF: BERMAN, FLEMING, HARVEY AND LIN, 19TH SYMP. COMB. P. 73, 1982         
CH+CO2=HCO+CO    1.7E12 0.0 6.85E2

!\REF: GLARBORG, MILLER, AND KEE, WESTERN STATES SECTION, SAN ANTONIO (1985)
C+OH=CO+H    5.0E13 0.0 0.0E0
C+O2=CO+O    5.0E13 0.0 0.0E0

!\REF: R.X. FERNANDES ET AL.,J PHYS. CHEM. A, (2006) 110:4442-4449.  
CH3+O2(+M)=CH3O2(+M)    7.81E9 0.9 0.0E0
    LOW/6.85E24 -3.0E0 0.0E0/
    TROE/6.0E-1 1.0E3 7.0E1 1.7E3/

!\REF:N. K. SRINIVASAN ET AL.,J. PHYS. CHEM. A 109, 7902-7914 (2005) 
CH3+O2=CH3O+O    7.55E12 0.0 2.832E4

!\REF: PERSONAL COMMUNICATION, STEVE KLIPPENSTEIN 
CH3+O2=CH2O+OH    2.64E0 3.283 8.105E3

!\REF:HARDING AND KLIPPENSTEIN 2B04, 30TH SYMP 2004. 
CH3+O=CH2O+H    5.54E13 0.05 -1.36E2

!\REF:FROM JASPER/ KLIPP,J.PHYS.CHEM A 111,19,3932-3950 
CH3+OH=CH2(S)+H2O    4.94E14 -0.669 -4.46E2
    PLOG/1.0E-2 4.94E14 -6.69E-1 -4.46E2/
    PLOG/1.0E-1 1.21E15 -7.78E-1 -1.76E2/
    PLOG/1.0E0 5.28E17 -1.518E0 1.772E3/
    PLOG/1.0E1 4.79E23 -3.155E0 7.003E3/
    PLOG/1.0E2 8.43E19 -1.962E0 8.244E3/

!\REF: JASPER/ KLIPP,J.PHYS.CHEM A 111,19,3932-3950 
CH3+OH=CH2O+H2    3.5E5 1.441 -3.244E3
    PLOG/1.0E-2 3.5E5 1.441E0 -3.244E3/
    PLOG/1.0E-1 8.85E5 1.327E0 -2.975E3/
    PLOG/1.0E0 1.65E7 9.73E-1 -2.01E3/
    PLOG/1.0E1 5.37E9 2.87E-1 2.8E2/
    PLOG/1.0E2 9.49E18 -2.199E0 9.769E3/
CH3+OH=CH2OH+H    1.62E10 0.965 3.21E3
    PLOG/1.0E-2 1.62E10 9.65E-1 3.214E3/
    PLOG/1.0E-1 1.81E10 9.5E-1 3.247E3/
    PLOG/1.0E0 4.69E10 8.33E-1 3.566E3/
    PLOG/1.0E1 1.52E13 1.34E-1 5.641E3/
    PLOG/1.0E2 3.59E14 -1.86E-1 8.601E3/
CH3+OH=H+CH3O    1.19E9 1.016 1.194E4
    PLOG/1.0E-2 1.19E9 1.016E0 1.194E4/
    PLOG/1.0E-1 1.19E9 1.016E0 1.194E4/
    PLOG/1.0E0 1.23E9 1.011E0 1.195E4/
    PLOG/1.0E1 1.8E9 9.65E-1 1.206E4/
    PLOG/1.0E2 5.24E10 5.51E-1 1.307E4/
CH3+OH=HCOH+H2    8.67E8 0.787 -3.046E3
    PLOG/1.0E-2 8.67E8 7.87E-1 -3.046E3/
    PLOG/1.0E-1 3.12E9 6.3E-1 -2.669E3/
    PLOG/1.0E0 1.56E11 1.56E-1 -1.368E3/
    PLOG/1.0E1 1.7E21 -2.641E0 6.412E3/
    PLOG/1.0E2 7.25E20 -2.402E0 9.639E3/
CH3+OH=CH2+H2O    4.29E4 2.568 3.998E3

!\REF: JASPER/ KLIPPENSTEIN PROC COMBUST INST 32 (2009) 279-286 
CH3+HO2=CH3O+OH    1.0E12 0.269 -6.88E2

!\REF:LIGHTFOOT ET AL. J. CHEM. SOC. FARA TRANS. 1991, 87(19), 3213--3220. 
CH3O2+O=CH3O+O2    3.6E13 0.0 0.0E0
CH3O2+H=CH3O+OH    9.6E13 0.0 0.0E0
CH3O2+OH=CH3OH+O2    6.0E13 0.0 0.0E0
CH3O2+HO2=CH3O2H+O2    2.47E11 0.0 -1.57E3

!\REF:!REF:TSANG, W., J. PHYS. CHEM. REF. DATA 15, 1087 (1986) 
CH3O2+H2O2=CH3O2H+HO2    2.41E12 0.0 9.936E3

!\REF:KEIFFER, M. ET AL.,J. CHEM. SOC. FARADAY TRANS. 2: 84, 505 (1988)    
CH3O2+CH3=2CH3O    5.08E12 0.0 -1.411E3

!\REF:LIGHTFOOT ET AL. J. CHEM. SOC. FARA TRANS. 1991, 87(19), 3213--3220. 
2CH3O2=>CH2O+CH3OH+O2    3.11E14 -1.61 -1.051E3
2CH3O2=>O2+2CH3O    1.4E16 -1.61 1.86E3

!\REF:TSANG _ HAMPSON, METHANE, J. PHYS. CHEM. REF. DATA, VOL 15, 1986 
H2+CH3O2=H+CH3O2H    1.5E14 0.0 2.603E4

!JASPER PROC.COMBUST.INST. 32 (2009) 279-286
CH3O2H(+M)=CH3O+OH(+M)    4.05E19 -1.153 4.4255E4
    LOW/3.89E42 -7.502E0 4.6761E4/
    TROE/8.375E-1 3.656E4 4.988E2 9.99E3/
CH2O2H=CH2O+OH    5.66E10 1.0 7.847E3

!\REF:FROM JASPER/ KLIPP,J.PHYS.CHEM A 111,19,3932-3950 
CH3OH(+M)=CH3+OH(+M)    2.08E18 -0.615 9.2541E4
    LOW/1.5E43 -6.995E0 9.7992E4/
    TROE/4.825E-1 3.093E2 2.83E4 2.804E2/
CH3OH(+M)=CH2(S)+H2O(+M)    3.12E18 -1.017 9.1712E4
    LOW/1.43E47 -8.227E0 9.9417E4/
    TROE/8.168E-1 4.973E2 5.161E8 6.323E2/
CH3OH(+M)=CH2OH+H(+M)    7.9E-3 5.038 8.4467E4
    LOW/3.39E42 -7.244E0 1.0523E5/
    TROE/5.684E-1 3.86E3 3.856E3 8.266E3/

!REF:S. J. KLIPPENSTEIN, L. B. HARDING, M. J. DAVIS, A. S. TOMLIN, R. T. SKODJE, PCI, 33 (2011) 351-357 
CH3OH+O2=CH2OH+HO2    3.58E5 2.27 4.2764E4

!\REF:J. CHEM. PHYS. 134, 094302 (2011)                                         
CH3OH+H=CH2OH+H2    3.07E5 2.55 5.44E3

!\REF:TSANG, JPC REF. DATA, 16:471 (1987)                                    
CH3OH+O=CH2OH+OH    3.88E5 2.5 3.08E3

!\REF:XU ET AL. PROC 31 2007 159-166                                          
CH3OH+OH=CH2OH+H2O    3.08E4 2.65 -8.07E2

!\REF: M. ALTARAWNEH, A. H. AL-MUHTASEB, B. Z. DLUGOGORSKI, E. M. KENNEDY, J. C. MACKIE, J. COMP. CHEM. 32 (2011) 1725-1733 
CH3OH+HO2=CH2OH+H2O2    3.26E13 0.0 1.8782E4

!\REF:I. M. ALECU, D. G. TRUHLAR, J. PHYS. CHEM. A, 115 (2011) 14599-14611 
CH3OH+CH3=CH2OH+CH4    2.13E-1 3.953 7.055E3

!\REF:TSANG, JPC REF. DATA, 16:471 (1987)                                   
CH3OH+HCO=CH2OH+CH2O    9.63E3 2.9 1.311E4                                
CH3OH+CH3O=CH2OH+CH3OH    3.0E11 0.0 4.074E3
CH3OH+CH3O2=CH2OH+CH3O2H    1.81E12 0.0 1.371E4
CH3OH+O2=CH3O+HO2    9.0E13 0.0 5.9974E4

!\REF:J. CHEM. PHYS. 134, 094302 (2011) 
CH3OH+H=CH3O+H2    1.99E5 2.56 1.03E4

!\REF:TSANG, JPC REF. DATA, 16:471 (1987)
CH3OH+O=CH3O+OH    3.88E4 2.5 3.08E3

!\REF:XU ET AL. PROC 31 2007 159-166   
CH3OH+OH=CH3O+H2O    1.5E2 3.03 -7.63E2

!\REF: M. ALTARAWNEH, A. H. AL-MUHTASEB, B. Z. DLUGOGORSKI, E. M. KENNEDY, J. C. MACKIE, J. COMP. CHEM. 32 (2011) 1725-1733  
CH3OH+HO2=CH3O+H2O2    1.22E12 0.0 2.0071E4

!\REF:I. M. ALECU, D. G. TRUHLAR, J. PHYS. CHEM. A, 115 (2011) 14599-14611
CH3OH+CH3=CH3O+CH4    3.22E3 2.425 8.58E3

!\REF:GROTHEER, H. H. ET AL., J. PHYS. CHEM. 92: 4028 (1988). 
CH2OH+O2=CH2O+HO2    1.51E15 -1.0 0.0E0
    DUP
CH2OH+O2=CH2O+HO2    2.41E14 0.0 5.017E3
    DUP

!\REF:TSANG, JPC REF. DATA, 16:471 (1987)                                    
CH2OH+H=CH2O+H2    6.0E12 0.0 0.0E0
CH2OH+HO2=CH2O+H2O2    1.2E13 0.0 0.0E0

!\REF:NORTON, T.S ET AL., IJCK. (1991).                                      
CH2OH+CH3O=CH2O+CH3OH    2.4E13 0.0 0.0E0

!\REF:TSANG, JPC REF. DATA, 16:471 (1987)                                    
CH2OH+OH=H2O+CH2O    2.4E13 0.0 0.0E0
CH2OH+O=OH+CH2O    4.2E13 0.0 0.0E0
2CH2OH=CH2O+CH3OH    3.0E12 0.0 0.0E0

!\REF:CURRAN ESTIMATE 
CH2OH+HO2=HOCH2O+OH    1.0E13 0.0 0.0E0

!\REF: BAULCH ET AL. J. PHYS. CHEM. REF. DATA, 34 (2005) 757 
CH3O+O2=CH2O+HO2    2.17E10 0.0 1.749E3

!\REF:HOYERMANN ET AL., 18TH SYMPOSIUM                           
CH3O+H=CH2O+H2    2.0E13 0.0 0.0E0

!\REF:TSANG AND HAMPSON, J. PHYS. CHEM. REF. DATA, 15:1087 (1986) 
CH3O+HO2=CH2O+H2O2    3.01E11 0.0 0.0E0
CH3O+CH3=CH2O+CH4    1.2E13 0.0 0.0E0
2CH3O=CH3OH+CH2O    6.03E13 0.0 0.0E0

! !MARINOV COMBUST.SCI.TECH. 116-117 (1996) 211-287
HCOH+O2=>CO2+H+OH    5.0E12 0.0 0.0E0
HCOH+O2=CO2+H2O    3.0E13 0.0 0.0E0
HCOH+O=>CO2+2H    5.0E13 0.0 0.0E0
HCOH+O=>CO+OH+H    3.0E13 0.0 0.0E0
HCOH+H=CH2O+H    2.0E14 0.0 0.0E0
HCOH+OH=HCO+H2O    2.0E13 0.0 0.0E0

!\REF:LASKIN ET AL. IJCK 32 589-614 2000 
HCO+H(+M)=CH2O(+M)    1.09E12 0.48 -2.6E2
    H2/2.0/
    H2O/6.0/
    AR/0.7/
    CO/1.5/
    CO2/2.0/
    CH4/2.0/
    LOW/1.35E24 -2.57E0 1.425E3/
    TROE/7.824E-1 2.71E2 2.755E3 6.57E3/
CO+H2(+M)=CH2O(+M)    4.3E7 1.5 7.96E4
    H2/2.0/
    H2O/6.0/
    AR/0.7/
    CO/1.5/
    CO2/2.0/
    CH4/2.0/
    LOW/5.07E27 -3.42E0 8.4348E4/
    TROE/9.32E-1 1.97E2 1.54E3 1.03E4/

! SRINIVASAN J.PHYS.CHEM.A 109 (2005) 7902-7914
CH2O+O2=HCO+HO2    1.42E4 2.975 3.7725E4

!\REF: NIST DATABASE              
CH2O+O=HCO+OH    6.26E9 1.15 2.26E3

!\REF: IRDAM ET AL., IJCK 1993, 25, 285                         
CH2O+H=HCO+H2    5.74E7 1.9 2.74E3

!\REF: VASUDEVAN IJCK 37 (2005) 98-109                             
CH2O+OH=HCO+H2O    7.82E7 1.63 -1.055E3

!\REF: J. PHYS. CHEM. A 109, 12027-12035, 2005                        
CH2O+HO2=HCO+H2O2    1.88E4 2.7 1.152E4

!\REF: BAULCH ET AL. JOURNAL OF PHYSICAL AND CHEMICAL REFERENCE DATA, 34, 3, 757-1397 2005 
CH2O+CH3=HCO+CH4    3.83E1 3.36 4.312E3

!\REF: ANALOGY WITH CH3O2+CH2O TSANG/ HAMPSON 1986                  
CH2O+O2CHO=HCO+HO2CHO    1.99E12 0.0 1.166E4

!\REF:CURRAN ESTIMATE                                            
CH2O+OCHO=HCO+HOCHO    5.6E12 0.0 1.36E4

!\REF:FITTSCHEN, C., J. CHIM. PHYS. 95: 2129 (1998).                 
CH2O+CH3O=HCO+CH3OH    6.62E11 0.0 2.294E3
CH2O+CH3O2=HCO+CH3O2H    1.88E4 2.7 1.152E4

!\REF: H.ZHAO, J.FU, F.M.HAAS, Y.JU, COMBUST. FLAME IN REVIEW APR '17 CNF-D-17-00058
CH2O+OH=>H+CO+H2O    2.59E11 0.692 9.371E3
CH2O+H=>H+CO+H2    5.0E11 0.952 1.2754E4
CH2O+O=>H+CO+OH    3.75E19 -1.323 2.2174E4

!\REF: From https://opus4.kobv.de/opus4-btu/frontdoor/index/index/docId/5709  and   https://doi.org/10.1002/kin.21006
HCO(+M)=H+CO(+M)    4.93E16 -0.93 19730 
    CO/1.9/  !!Li et al. 1.9
    CH4/2.0/
    H2/2.5/  !!Li et al. 2.5
    CO2/3.8/  !!Li et al. 3.8
    H2O/12/
    LOW/4.942E10 0.95965 14670/  
    TROE/8.52E-1 5.14E1 3.57E3 3.42E3/

!\REF:TIMONEN ET AL., JPC, 92:651 (1988)                              
HCO+O2=CO+HO2    7.58E12 0.0 4.1E2

!\REF:TSANG AND HAMPSON, J. PHYS. CHEM. REF. DATA, 15:1087 (1986)     
HCO+O=CO+OH    3.02E13 0.0 0.0E0

!\Ref: L.B.HARDING, A.F.WAGNER, PROC. COMBUST. INST. 21(1986)
H+HCO=H2+CO    6.13E12 0.41 -2.1557E2
HCO+OH=CO+H2O    3.01E13 0.0 0.0E0

!\REF:MULENKO, S.A. REV. ROUM. PHYS. 32, 173 (1987)                  
HCO+CH3=CH4+CO    2.65E13 0.0 0.0E0

!\REF:TSANG AND HAMPSON, J. PHYS. CHEM. REF. DATA, 15:1087 (1986)    
2HCO=CH2O+CO    1.8E13 0.0 0.0E0
HCO+O=CO2+H    3.0E13 0.0 0.0E0
HCO+HO2=>CO2+H+OH    3.0E13 0.0 0.0E0
2HCO=>H2+2CO    3.0E12 0.0 0.0E0

!\REF:LASKIN ET AL. IJCK 32 589-614 2000
CH2O+H(+M)=CH2OH(+M)    5.4E11 0.454 3.6E3
    H2/2.0/
    H2O/6.0/
    CO/1.5/
    CO2/2.0/
    CH4/2.0/
    LOW/1.27E32 -4.82E0 6.53E3/
    TROE/7.187E-1 1.03E2 1.291E3 4.16E3/

!\REF:HIPPLER ET AL. PCCP. 3: 3450--2458 (2001).
CH3O(+M)=CH2O+H(+M)    6.8E13 0.0 2.617E4
    H2/2.0/
    H2O/6.0/
    CO/1.5/
    CO2/2.0/
    CH4/2.0/
    LOW/1.87E25 -3.0E0 2.4307E4/
    TROE/9.0E-1 2.5E3 1.3E3 1.0E99/

! !XU IJCK 38 (2006) 322-326
CH2O+OH=HOCH2O    6.32E6 1.63 4.284E3

!DAMES COMBUST.FLAME 168 (2016) 310-330
HOCH2O=HOCHO+H    4.4E8 1.363 1.1664E4
    PLOG/1.0E-3 2.04E12 -1.61E0 7.28E3/
    PLOG/4.0E-3 8.06E13 -1.9E0 8.11E3/
    PLOG/1.8E-2 3.55E15 -2.2E0 8.99E3/
    PLOG/7.5E-2 1.56E17 -2.5E0 9.91E3/
    PLOG/3.16E-1 5.39E18 -2.77E0 1.085E4/
    PLOG/1.33E0 8.62E19 -2.93E0 1.173E4/
    PLOG/5.62E0 2.4E20 -2.87E0 1.243E4/
    PLOG/2.37E1 3.21E19 -2.42E0 1.274E4/
    PLOG/1.0E2 1.03E17 -1.48E0 1.248E4/

!\REF:CURRAN ESTIMATE 
CH2O+HO2=OCH2O2H    1.5E11 0.0 1.19E4
OCH2O2H=HOCH2O2    3.0E11 0.0 8.6E3
HOCH2O2+HO2=HOCH2O2H+O2    3.5E10 0.0 -3.275E3
HOCH2O+OH=HOCH2O2H    1.0E13 0.0 0.0E0
HCO+O2=O2CHO    1.2E11 0.0 -1.1E3

!HPL CHANG JPCA 111 (2007) 6789-6797
HOCHO=H2O+CO    7.49E14 0.0 6.871E4
HOCHO=CO2+H2    4.46E13 0.0 6.824E4

!YU JCHEMPHYS 129 (2008) 214307
HOCO+HO2=HOCHO+O2    4.0E11 0.0 0.0E0

!MARSHALL PROCI 35 (2015) 153-160
HOCHO+O2=OCHO+HO2    3.0E13 0.0 6.3E4
HOCHO+H=HOCO+H2    2.3E2 3.272 4.858E3
HOCHO+H=OCHO+H2    4.2E5 2.255 1.4091E4
HOCHO+O=HOCO+OH    5.1E1 3.422 4.216E3
HOCHO+O=OCHO+OH    1.7E5 2.103 9.88E3

!ANGLADA J.AM.CHEM.SOC. 126 (2004) 9809-9820
HOCHO+OH=HOCO+H2O    7.8E-6 5.57 -2.365E3
HOCHO+OH=OCHO+H2O    4.9E-5 4.91 -5.067E3

!MARINOV ESTIMATE
HOCHO+CH3=>CH4+CO+OH    3.9E-7 5.8 2.2E3

!MARSHALL PROCI 35 (2015) 153-160
HOCHO+HO2=HOCO+H2O2    4.7E-1 3.975 1.6787E4
HOCHO+HO2=OCHO+H2O2    3.9E1 3.08 2.5206E4
OCHO=CO2+H    1.0E10 0.0 0.0E0
OCHO+O2=CO2+HO2    5.0E13 0.0 0.0E0

!\REF:FRIEDRICHS, G.; DAVIDSON, D. F.; HANSON, R. K. INT J. CHEM. KINET. 2004, 36, 157. 
CH3O+HCO=CH3OH+CO    9.0E13 0.0 0.0E0

END
